============================[ Problem Statistics ]=============================|                                                                             ||  Number of variables:          4242                                         ||  Number of clauses:            9887                                         ||  Parse time:                   0.29 s                                       ||                                                                             |============================[ Search Statistics ]==============================| Conflicts |          ORIGINAL         |          LEARNT          | Progress ||           |    Vars  Clauses Literals |    Limit  Clauses Lit/Cl |          |===============================================================================|       100 |    1591     6092   439773 |     2233      100     53 | 62.501 % |===============================================================================restarts              : 2conflicts             : 167            (373 /sec)decisions             : 337            (0.00 % random) (752 /sec)propagations          : 9995           (22310 /sec)conflict literals     : 11193          (95.30 % deleted)CPU time              : 0.448 sSATISFIABLE